6743087304620467130502,15,1,2,08,7,1,2,04,12,1,2,015,1,1,2,01,7,1,2,02,13,1,2,07,2,1,2,013,10,1,2,015,8,1,2,02,13,1,2,04,9,1,2,012,7,1,2,06,10,1,2,012,5,1,2,014,4,1,2,03,1,1,2,05,5,1,2,012,2,1,2,012,12,1,2,05,2,1,2,012,10,1,2,014,3,1,2,07,10,1,2,08,10,1,2,010,7,1,2,03,3,1,2,012,11,1,2,015,7,1,2,013,4,1,2,05,7,1,2,02,5,1,2,02,3,1,2,08,7,1,2,08,5,1,2,012,10,1,2,014,3,1,2,015,10,1,2,011,14,1,2,06,15,1,2,012,2,1,2,014,7,1,2,01,14,1,2,015,2,1,2,07,12,1,2,011,13,1,2,013,6,1,2,014,15,1,2,08,1,1,2,05,6,1,2,014,7,1,2,0